solving instance mcf arcs c53 3 6 log
presolving:
(round 1, fast)       550 del vars, 550 del conss, 0 add conss, 520 chg bounds, 0 chg sides, 0 chg coeffs, 0 upgd conss, 0 impls, 0 clqs
   (2.4s) symmetry computation started: requiring (bin +, int +, cont +), (fixed: bin -, int -, cont -)
   (2.9s) no symmetry present (symcode time: 0.14)
presolving (2 rounds: 2 fast, 1 medium, 1 exhaustive):
 580 deleted vars, 550 deleted constraints, 0 added constraints, 520 tightened bounds, 0 added holes, 0 changed sides, 0 changed coefficients
 0 implications, 0 cliques
presolved problem has 209040 variables (0 bin, 0 int, 0 impl, 209040 cont) and 13070 constraints
  12550 constraints of type <linear>
    520 constraints of type <nonlinear>
Presolving Time: 2.42

 time | node  | left  |LP iter|LP it/n|mem/heur|mdpt |vars |cons |rows |cuts |sepa|confs|strbr|  dualbound   | primalbound  |  gap   | compl. 
 1416s|     1 |     0 |325573 |     - |   882M |   0 | 210k|  13k|  13k|   0 |  0 |   0 |   0 | 9.669086e+04 |      --      |    Inf | unknown
L2733s|     1 |     0 |325573 |     - |  subnlp|   0 | 210k|  13k|  13k|   0 |  0 |   0 |   0 | 9.669086e+04 | 1.423587e+05 |  47.23%| unknown
 2734s|     1 |     0 |325580 |     - |   894M |   0 | 210k|  13k|  13k|   0 |  1 |   0 |   0 | 9.669087e+04 | 1.423587e+05 |  47.23%| unknown

SCIP Status        : solving was interrupted [time limit reached]
Solving Time (sec) : 3600.03
Solving Nodes      : 1
Primal Bound       : +1.42358719850359e+05 (2 solutions)
Dual Bound         : +9.66908651068162e+04
Gap                : 47.23 %
primal_bound = 142358.71985035858, dual_bound = 96690.86510681617, gap = 32.079422174873805, time = 3606.58
